Version identifier: 22.1.1.0 | 2022-11-28 | 9160aff4d
CPXPARAM_ClockType                               1
CPXPARAM_Read_DataCheck                          1
CPXPARAM_Threads                                 1
CPXPARAM_TimeLimit                               7200
CPXPARAM_MIP_Tolerances_AbsMIPGap                0
CPXPARAM_MIP_Tolerances_MIPGap                   0
CPXPARAM_MIP_Tolerances_Integrality              0
Tried aggregator 2 times.
MIP Presolve eliminated 2656 rows and 10 columns.
MIP Presolve modified 240 coefficients.
Aggregator did 2 substitutions.
Reduced MIP has 1609 rows, 1308 columns, and 6652 nonzeros.
Reduced MIP has 1308 binaries, 0 generals, 0 SOSs, and 0 indicators.
Presolve time = 0.01 sec. (7.19 ticks)
Probing time = 0.01 sec. (2.89 ticks)
Tried aggregator 1 time.
Detecting symmetries...
MIP Presolve eliminated 1 rows and 1 columns.
Reduced MIP has 1608 rows, 1307 columns, and 6649 nonzeros.
Reduced MIP has 1307 binaries, 0 generals, 0 SOSs, and 0 indicators.
Presolve time = 0.01 sec. (6.25 ticks)
Probing time = 0.00 sec. (2.36 ticks)
Clique table members: 4065.
MIP emphasis: balance optimality and feasibility.
MIP search method: dynamic search.
Parallel mode: none, using 1 thread.
Root relaxation solution time = 0.01 sec. (13.54 ticks)

        Nodes                                         Cuts/
   Node  Left     Objective  IInf  Best Integer    Best Bound    ItCnt     Gap

      0     0      123.0000   169                    123.0000      495         
*     0+    0                          123.0000      123.0000             0.00%
      0     0        cutoff            123.0000      123.0000      495    0.00%
Elapsed time = 0.13 sec. (85.23 ticks, tree = 0.01 MB, solutions = 1)

Root node processing (before b&c):
  Real time             =    0.13 sec. (85.27 ticks)
Sequential b&c:
  Real time             =    0.00 sec. (0.00 ticks)
                          ------------
Total (root+branch&cut) =    0.13 sec. (85.27 ticks)
Solution is feasible.

---------------------
@@@ MIP_optimal
>>> Benchmark mc2024_track1_006.cnf k 2 OPT 123 TimeCost 0.3332407474517822 TimeSolve 0.13605618476867676 TimeRead 0.004329681396484375 TimeTrans 0.1928548812866211
